p cnf 45 180
1 2 3 4 5  0
-6 1 0
6 -1 0
-7 6 2 0
7 -6 0
7 -2 0
-8 7 3 0
8 -7 0
8 -3 0
-9 8 4 0
9 -8 0
9 -4 0
-6 -2 0
-7 -3 0
-8 -4 0
-9 -5 0
10 11 12 13 14  0
-15 10 0
15 -10 0
-16 15 11 0
16 -15 0
16 -11 0
-17 16 12 0
17 -16 0
17 -12 0
-18 17 13 0
18 -17 0
18 -13 0
-15 -11 0
-16 -12 0
-17 -13 0
-18 -14 0
19 20 21 22 23  0
-24 19 0
24 -19 0
-25 24 20 0
25 -24 0
25 -20 0
-26 25 21 0
26 -25 0
26 -21 0
-27 26 22 0
27 -26 0
27 -22 0
-24 -20 0
-25 -21 0
-26 -22 0
-27 -23 0
28 29 30 31 32  0
-33 28 0
33 -28 0
-34 33 29 0
34 -33 0
34 -29 0
-35 34 30 0
35 -34 0
35 -30 0
-36 35 31 0
36 -35 0
36 -31 0
-33 -29 0
-34 -30 0
-35 -31 0
-36 -32 0
37 38 39 40 41  0
-42 37 0
42 -37 0
-43 42 38 0
43 -42 0
43 -38 0
-44 43 39 0
44 -43 0
44 -39 0
-45 44 40 0
45 -44 0
45 -40 0
-42 -38 0
-43 -39 0
-44 -40 0
-45 -41 0
-10 -1 0
-19 -1 0
-19 -10 0
-28 -1 0
-28 -10 0
-28 -19 0
-37 -1 0
-37 -10 0
-37 -19 0
-37 -28 0
-11 -2 0
-20 -2 0
-20 -11 0
-29 -2 0
-29 -11 0
-29 -20 0
-38 -2 0
-38 -11 0
-38 -20 0
-38 -29 0
-12 -3 0
-21 -3 0
-21 -12 0
-30 -3 0
-30 -12 0
-30 -21 0
-39 -3 0
-39 -12 0
-39 -21 0
-39 -30 0
-13 -4 0
-22 -4 0
-22 -13 0
-31 -4 0
-31 -13 0
-31 -22 0
-40 -4 0
-40 -13 0
-40 -22 0
-40 -31 0
-14 -5 0
-23 -5 0
-23 -14 0
-32 -5 0
-32 -14 0
-32 -23 0
-41 -5 0
-41 -14 0
-41 -23 0
-41 -32 0
-10 -2 0
-11 -1 0
-11 -3 0
-12 -2 0
-12 -4 0
-13 -3 0
-13 -5 0
-14 -4 0
-19 -3 0
-20 -4 0
-21 -1 0
-21 -5 0
-22 -2 0
-23 -3 0
-19 -11 0
-20 -10 0
-20 -12 0
-21 -11 0
-21 -13 0
-22 -12 0
-22 -14 0
-23 -13 0
-28 -4 0
-29 -5 0
-31 -1 0
-32 -2 0
-28 -12 0
-29 -13 0
-30 -10 0
-30 -14 0
-31 -11 0
-32 -12 0
-28 -20 0
-29 -19 0
-29 -21 0
-30 -20 0
-30 -22 0
-31 -21 0
-31 -23 0
-32 -22 0
-37 -5 0
-41 -1 0
-37 -13 0
-38 -14 0
-40 -10 0
-41 -11 0
-37 -21 0
-38 -22 0
-39 -19 0
-39 -23 0
-40 -20 0
-41 -21 0
-37 -29 0
-38 -28 0
-38 -30 0
-39 -29 0
-39 -31 0
-40 -30 0
-40 -32 0
-41 -31 0
